c FILE: i080-034

c SOURCE: From steinlib

c DESCRIPTION: Steinlib instance with 80 nodes and 160 edges.

p edge 80 160
e 1 11
e 1 12
e 1 21
e 1 43
e 1 55
e 1 56
e 1 59
e 2 7
e 2 38
e 2 52
e 2 55
e 2 60
e 3 13
e 3 16
e 4 13
e 4 59
e 4 68
e 5 18
e 5 54
e 5 59
e 5 68
e 5 72
e 6 10
e 6 51
e 6 60
e 6 69
e 6 73
e 6 77
e 7 14
e 7 21
e 7 33
e 7 57
e 8 16
e 8 20
e 8 75
e 9 30
e 9 50
e 9 52
e 10 17
e 10 51
e 10 73
e 11 34
e 11 53
e 12 16
e 12 24
e 12 51
e 12 53
e 12 55
e 12 69
e 13 40
e 13 64
e 13 71
e 14 19
e 14 33
e 14 56
e 15 17
e 15 26
e 15 27
e 16 25
e 16 54
e 16 69
e 16 72
e 17 30
e 17 48
e 18 47
e 18 75
e 19 32
e 19 37
e 19 46
e 19 63
e 20 52
e 20 60
e 21 29
e 21 35
e 21 36
e 22 40
e 22 47
e 22 49
e 22 59
e 23 40
e 24 36
e 24 61
e 24 77
e 24 80
e 25 28
e 25 49
e 25 58
e 25 74
e 26 31
e 26 64
e 27 31
e 28 29
e 28 51
e 29 35
e 29 45
e 29 66
e 29 76
e 30 39
e 30 42
e 30 54
e 31 35
e 31 40
e 31 41
e 31 52
e 31 70
e 32 50
e 33 41
e 33 46
e 33 48
e 33 76
e 34 70
e 35 43
e 35 44
e 36 53
e 36 69
e 36 72
e 37 49
e 38 39
e 38 47
e 38 56
e 38 72
e 38 77
e 39 53
e 40 50
e 40 51
e 40 80
e 41 51
e 41 66
e 42 51
e 43 44
e 43 56
e 43 63
e 43 71
e 44 56
e 45 57
e 45 72
e 46 49
e 46 54
e 46 69
e 47 56
e 47 75
e 48 57
e 48 67
e 48 69
e 49 61
e 49 78
e 52 60
e 52 62
e 54 58
e 55 61
e 56 70
e 57 62
e 57 75
e 61 62
e 62 65
e 62 77
e 63 80
e 67 78
e 72 78
e 76 79
